NAME 
ROWS
 N  OBJ
 L  R0      
 L  R1      
 L  R2      
 E  R3      
 E  R4      
 E  R5      
 E  R6      
 E  R7      
 E  R8      
 E  R9      
 E  R10     
 E  R11     
 E  R12     
 E  R13     
 E  R14     
 E  R15     
 E  R16     
 E  R17     
 E  R18     
 E  R19     
 E  R20     
 E  R21     
 E  R22     
COLUMNS
    MARKER    'MARKER'                 'INTORG'
    I0(10)    OBJ       99
    I0(10)    R0        17
    I0(10)    R1        67
    I0(10)    R2        -90
    I0(10)    R3        8
    I0(10)    R5        3
    I0(10)    R6        11
    I0(10)    R7        5
    I0(10)    R8        17
    I0(10)    R10       15
    I0(10)    R22       1
    I1(8)     OBJ       20
    I1(8)     R0        -11
    I1(8)     R1        106
    I1(8)     R2        43
    I1(8)     R4        8
    I1(8)     R5        9
    I1(8)     R7        4
    I1(8)     R9        -1
    I1(8)     R22       1
    I2(9)     OBJ       172
    I2(9)     R0        71
    I2(9)     R1        -119
    I2(9)     R2        -131
    I2(9)     R3        8
    I2(9)     R4        13
    I2(9)     R6        4
    I2(9)     R7        18
    I2(9)     R10       10
    I2(9)     R22       1
    I3(9)     OBJ       -26
    I3(9)     R0        6
    I3(9)     R1        115
    I3(9)     R2        -113
    I3(9)     R3        7
    I3(9)     R4        16
    I3(9)     R5        5
    I3(9)     R8        10
    I3(9)     R10       6
    I3(9)     R22       1
    I4(9)     OBJ       30
    I4(9)     R0        -143
    I4(9)     R1        64
    I4(9)     R2        144
    I4(9)     R3        18
    I4(9)     R4        9
    I4(9)     R5        3
    I4(9)     R6        -1
    I4(9)     R9        16
    I4(9)     R22       1
    I5(8)     OBJ       -180
    I5(8)     R0        -165
    I5(8)     R1        4
    I5(8)     R2        -108
    I5(8)     R4        12
    I5(8)     R7        19
    I5(8)     R8        -1
    I5(8)     R9        13
    I5(8)     R22       1
    I6(8)     OBJ       -10
    I6(8)     R0        -90
    I6(8)     R1        61
    I6(8)     R2        59
    I6(8)     R4        5
    I6(8)     R8        14
    I6(8)     R9        3
    I6(8)     R10       9
    I6(8)     R22       1
    I7(9)     OBJ       193
    I7(9)     R0        22
    I7(9)     R1        -152
    I7(9)     R2        54
    I7(9)     R3        10
    I7(9)     R5        16
    I7(9)     R6        4
    I7(9)     R9        1
    I7(9)     R10       14
    I7(9)     R22       1
    MARKER    'MARKER'                 'INTEND'
    C8(12)    OBJ       6
    C8(12)    R0        -2
    C8(12)    R1        5
    C8(12)    R2        -10
    C8(12)    R3        -1
    C8(12)    R4        1
    C8(12)    R7        17
    C8(12)    R8        -1
    C8(12)    R10       4
    C8(12)    R11       19
    C8(12)    R14       4
    C8(12)    R20       4
    C8(12)    R21       14
    C9(13)    OBJ       -1
    C9(13)    R0        8
    C9(13)    R1        -7
    C9(13)    R2        -3
    C9(13)    R3        12
    C9(13)    R4        19
    C9(13)    R5        9
    C9(13)    R6        15
    C9(13)    R7        7
    C9(13)    R9        17
    C9(13)    R15       16
    C9(13)    R17       16
    C9(13)    R20       10
    C9(13)    R21       13
    C10(13)   OBJ       -5
    C10(13)   R0        -8
    C10(13)   R1        6
    C10(13)   R2        -1
    C10(13)   R3        13
    C10(13)   R4        9
    C10(13)   R5        2
    C10(13)   R7        11
    C10(13)   R12       6
    C10(13)   R13       11
    C10(13)   R16       8
    C10(13)   R17       15
    C10(13)   R19       1
    C10(13)   R20       8
    C11(16)   OBJ       2
    C11(16)   R0        -6
    C11(16)   R1        -7
    C11(16)   R2        -10
    C11(16)   R4        14
    C11(16)   R7        3
    C11(16)   R8        -1
    C11(16)   R9        13
    C11(16)   R10       1
    C11(16)   R11       12
    C11(16)   R12       15
    C11(16)   R13       3
    C11(16)   R14       15
    C11(16)   R17       15
    C11(16)   R18       10
    C11(16)   R19       11
    C11(16)   R20       5
    C12(10)   OBJ       9
    C12(10)   R0        -5
    C12(10)   R1        2
    C12(10)   R2        6
    C12(10)   R3        18
    C12(10)   R6        2
    C12(10)   R8        10
    C12(10)   R11       17
    C12(10)   R16       -1
    C12(10)   R18       9
    C12(10)   R21       3
    C13(13)   OBJ       4
    C13(13)   R0        -8
    C13(13)   R1        3
    C13(13)   R2        -8
    C13(13)   R3        9
    C13(13)   R5        10
    C13(13)   R7        3
    C13(13)   R8        4
    C13(13)   R9        -1
    C13(13)   R11       16
    C13(13)   R12       16
    C13(13)   R13       4
    C13(13)   R14       4
    C13(13)   R19       9
    C14(14)   OBJ       2
    C14(14)   R0        -7
    C14(14)   R1        -4
    C14(14)   R2        7
    C14(14)   R3        16
    C14(14)   R4        11
    C14(14)   R6        -1
    C14(14)   R7        14
    C14(14)   R9        8
    C14(14)   R10       5
    C14(14)   R12       19
    C14(14)   R14       11
    C14(14)   R15       17
    C14(14)   R16       10
    C14(14)   R20       14
    C15(11)   OBJ       -10
    C15(11)   R0        -7
    C15(11)   R1        4
    C15(11)   R2        -9
    C15(11)   R4        15
    C15(11)   R5        17
    C15(11)   R6        -1
    C15(11)   R11       8
    C15(11)   R13       17
    C15(11)   R14       6
    C15(11)   R15       1
    C15(11)   R19       2
    C16(12)   OBJ       -2
    C16(12)   R0        -4
    C16(12)   R1        2
    C16(12)   R2        7
    C16(12)   R4        12
    C16(12)   R6        7
    C16(12)   R8        8
    C16(12)   R10       12
    C16(12)   R13       3
    C16(12)   R16       19
    C16(12)   R17       16
    C16(12)   R19       4
    C16(12)   R21       -1
    C17(12)   OBJ       -5
    C17(12)   R0        -8
    C17(12)   R1        -7
    C17(12)   R2        -8
    C17(12)   R3        11
    C17(12)   R4        9
    C17(12)   R5        17
    C17(12)   R7        7
    C17(12)   R9        18
    C17(12)   R10       8
    C17(12)   R11       -1
    C17(12)   R18       18
    C17(12)   R20       2
    C18(13)   OBJ       8
    C18(13)   R0        4
    C18(13)   R1        -10
    C18(13)   R2        8
    C18(13)   R4        10
    C18(13)   R5        11
    C18(13)   R7        5
    C18(13)   R8        2
    C18(13)   R9        15
    C18(13)   R14       8
    C18(13)   R15       10
    C18(13)   R16       15
    C18(13)   R17       7
    C18(13)   R21       14
    C19(11)   OBJ       -7
    C19(11)   R0        1
    C19(11)   R1        -6
    C19(11)   R2        8
    C19(11)   R4        6
    C19(11)   R7        10
    C19(11)   R8        5
    C19(11)   R11       1
    C19(11)   R12       3
    C19(11)   R13       17
    C19(11)   R16       1
    C19(11)   R18       8
    C20(1)    R3        1
    C21(1)    R4        1
    C22(1)    R5        1
    C23(1)    R6        1
    C24(1)    R7        1
    C25(1)    R8        1
    C26(1)    R9        1
    C27(1)    R10       1
    C28(1)    R11       1
    C29(1)    R12       1
    C30(1)    R13       1
    C31(1)    R14       1
    C32(1)    R15       1
    C33(1)    R16       1
    C34(1)    R17       1
    C35(1)    R18       1
    C36(1)    R19       1
    C37(1)    R20       1
    C38(1)    R21       1
    C39(1)    R22       1
RHS
    RHS1      R0        -3.3239869281045759e+02
    RHS1      R1        -2.1058823529411804e+01
    RHS1      R2        -1.8653364090734345e+02
    RHS1      R3        87
    RHS1      R4        64
    RHS1      R5        93
    RHS1      R6        57
    RHS1      R7        88
    RHS1      R8        66
    RHS1      R9        91
    RHS1      R10       84
    RHS1      R11       91
    RHS1      R12       55
    RHS1      R13       89
    RHS1      R14       67
    RHS1      R15       95
    RHS1      R16       58
    RHS1      R17       69
    RHS1      R18       60
    RHS1      R19       51
    RHS1      R20       84
    RHS1      R21       62
    RHS1      R22       2
BOUNDS
 UP BND1      I0(10)    2
 UP BND1      I1(8)     2
 UP BND1      I2(9)     2
 UP BND1      I3(9)     2
 UP BND1      I4(9)     2
 UP BND1      I5(8)     2
 UP BND1      I6(8)     2
 UP BND1      I7(9)     2
ENDATA
